(declare-const term_to_project_onto Real)
(declare-const tmp___1 Int)
(declare-const term_to_project_onto0 Real)
(declare-const term_to_project_onto1 Real)
(assert (exists
         ((|tmp___1'?1| Int) (|y'?2| Int) (|x'?3| Int) (havoc?4 Int)
            (x?5 Int) (y?6 Int))
         (and (or (<= (+ havoc?4 1) 0) (<= (+ (- havoc?4) 1) 0))
                (= (+ |tmp___1'?1| (- havoc?4)) 0)
                (= (+ (- y?6) |y'?2| -1) 0) (= (+ (- x?5) |x'?3| -1) 0)
                (= term_to_project_onto1 (+ |x'?3| (- x?5)))
                (= term_to_project_onto0 (+ |y'?2| (- y?6)))
                (= term_to_project_onto (+ |tmp___1'?1| (- tmp___1))))))
(check-sat)
